<?xml version = "1.0" standalone="yes"?>
<!-- This file has been generated by DOcplex version 2.23.222  -->
<CPLEXSolution version="1.0">
 <header
   problemName="CVRP"
   objectiveValue="8235.67"
  />
 <variables>
  <variable name="x_0_1" index="0" value="1.00000"/>
  <variable name="x_0_4" index="3" value="1.00000"/>
  <variable name="x_0_6" index="5" value="1.00000"/>
  <variable name="x_0_7" index="6" value="1.00000"/>
  <variable name="x_0_10" index="9" value="1.00000"/>
  <variable name="x_0_11" index="10" value="1.00000"/>
  <variable name="x_0_14" index="13" value="1.00000"/>
  <variable name="x_0_15" index="14" value="1.00000"/>
  <variable name="x_0_16" index="15" value="1.00000"/>
  <variable name="x_0_17" index="16" value="1.00000"/>
  <variable name="x_0_18" index="17" value="1.00000"/>
  <variable name="x_1_5" index="22" value="1.00000"/>
  <variable name="x_2_0" index="36" value="1.00000"/>
  <variable name="x_3_0" index="54" value="1.00000"/>
  <variable name="x_4_3" index="75" value="1.00000"/>
  <variable name="x_5_8" index="97" value="1.00000"/>
  <variable name="x_6_0" index="108" value="1.00000"/>
  <variable name="x_7_0" index="126" value="1.00000"/>
  <variable name="x_8_2" index="146" value="1.00000"/>
  <variable name="x_9_0" index="162" value="1.00000"/>
  <variable name="x_10_13" index="192" value="1.00000"/>
  <variable name="x_11_0" index="198" value="1.00000"/>
  <variable name="x_12_9" index="225" value="1.00000"/>
  <variable name="x_13_0" index="234" value="1.00000"/>
  <variable name="x_14_12" index="264" value="1.00000"/>
  <variable name="x_15_0" index="270" value="1.00000"/>
  <variable name="x_16_0" index="288" value="1.00000"/>
  <variable name="x_17_0" index="306" value="1.00000"/>
  <variable name="x_18_0" index="324" value="1.00000"/>
  <variable name="u_1" index="342" value="24.00000"/>
  <variable name="u_2" index="343" value="37.00000"/>
  <variable name="u_3" index="344" value="43.00000"/>
  <variable name="u_4" index="345" value="4.00000"/>
  <variable name="u_5" index="346" value="26.00000"/>
  <variable name="u_6" index="347" value="40.00000"/>
  <variable name="u_7" index="348" value="34.00000"/>
  <variable name="u_8" index="349" value="29.00000"/>
  <variable name="u_9" index="350" value="44.00000"/>
  <variable name="u_10" index="351" value="19.00000"/>
  <variable name="u_11" index="352" value="39.00000"/>
  <variable name="u_12" index="353" value="11.00000"/>
  <variable name="u_13" index="354" value="44.00000"/>
  <variable name="u_14" index="355" value="10.00000"/>
  <variable name="u_15" index="356" value="44.00000"/>
  <variable name="u_16" index="357" value="44.00000"/>
  <variable name="u_17" index="358" value="27.00000"/>
  <variable name="u_18" index="359" value="42.00000"/>
 </variables>
</CPLEXSolution>
